7,1,18,2,1,3,2,1,10,1,16,2,15,2,12,3,3,1,17,4,6,3,19,2,4,4,14,4,9,3,11,1,5,1,20,5,13,4,8,5;18,1,1,2,13,1,16,1,17,2,20,3,10,2,12,4,3,2,7,4,9,2,14,2,2,3,6,5,15,5,4,5,8,3,11,3,19,4,5,4;1,1,4,1,20,2,12,2,6,2,18,3,7,3,14,1,16,5,3,3,10,3,17,5,15,4,13,2,19,3,2,5,9,4,8,4,11,5,5,5;2,2,4,2,1,4,17,3,18,4,16,4,20,4,15,3,12,5,6,4,7,5,14,5,3,5,8,2,11,2,10,5,5,3,9,5,13,5,19,5;12,1,20,1,17,1,15,1,6,1,7,2,19,1,16,3,4,3,9,1,3,4,14,3,8,1,2,4,10,4,18,5,13,3,5,2,11,4,1,5;
